% Auto-generated by scripts/generate_dzn.py
% problem_type   = regex
% instance       = regex_86
% source_json    = instances_json/2_high_blowup/regex_86.json
% blowup         = 184.125
% representation = NFA

mode = 1;

var_count = 23;
n_constraints = 2;
Q = 16;
S = 2;
q0 = [1, 1];
F = [{16}, {8}];
weights = [6, 5, 3, 7, 1, 4, 1, 2, 2, 3, 5, 2, 10, 7, 3, 5, 9, 10, 9, 9, 5, 6, 3];
d_dfa = array3d(1..2, 1..16, 1..2, [
  % k = 1
    0, 0,
    0, 0,
    0, 0,
    0, 0,
    0, 0,
    0, 0,
    0, 0,
    0, 0,
    0, 0,
    0, 0,
    0, 0,
    0, 0,
    0, 0,
    0, 0,
    0, 0,
    0, 0,

  % k = 2
    0, 0,
    0, 0,
    0, 0,
    0, 0,
    0, 0,
    0, 0,
    0, 0,
    0, 0,
    0, 0,
    0, 0,
    0, 0,
    0, 0,
    0, 0,
    0, 0,
    0, 0,
    0, 0
]);
d_nfa = array3d(1..2, 1..16, 1..2, [
  % k = 1
    {1}, {1, 2},
    {}, {3},
    {4}, {4},
    {5}, {5},
    {6}, {6},
    {7}, {7},
    {8}, {8},
    {9}, {9},
    {10}, {10},
    {11}, {11},
    {12}, {12},
    {13}, {13},
    {14}, {14},
    {15}, {15},
    {16}, {16},
    {}, {},

  % k = 2
    {2}, {1},
    {3}, {2},
    {4}, {3},
    {5}, {4},
    {6}, {5},
    {7}, {6},
    {8}, {7},
    {}, {8},
    {}, {},
    {}, {},
    {}, {},
    {}, {},
    {}, {},
    {}, {},
    {}, {},
    {}, {}
]);
